c FILE: aim-50-1_6-yes1-4.cnf
c
c SOURCE: Kazuo Iwama, Eiji Miyano (miyano@cscu.kyushu-u.ac.jp),
c          and Yuichi Asahiro
c
c DESCRIPTION: Artifical instances from generator by source.  Generators
c              and more information in sat/contributed/iwama.
c
c NOTE: Satisfiable
c
p cnf 47 80
16 17 30 0
-17 22 30 0
-17 -22 30 0
16 -30 47 0
16 -30 -47 0
-16 -21 31 0
-16 -21 -31 0
-16 21 -28 0
-13 21 28 0
13 -16 18 0
13 -18 -38 0
